p cnf 323 1259
c p weight 14 1 0
c p weight -14 1 0
c p weight 15 0 0
c p weight -15 1 0
c p weight 16 -1 0
c p weight -16 1 0
c p weight 18 6.12323399573676603586882014729198302312846062338790031898128063403419218957424163818359375E-17 0
c p weight -18 1 0
c p weight 19 1 0
c p weight -19 1 0
c p weight 20 -1 0
c p weight -20 1 0
c p weight 22 -0.707106781186547461715008466853760182857513427734375 0
c p weight -22 1 0
c p weight 23 0.70710678118654757273731092936941422522068023681640625 0
c p weight -23 1 0
c p weight 24 -1 0
c p weight -24 1 0
c p weight 26 6.12323399573676603586882014729198302312846062338790031898128063403419218957424163818359375E-17 0
c p weight -26 1 0
c p weight 27 1 0
c p weight -27 1 0
c p weight 28 -1 0
c p weight -28 1 0
c p weight 30 -1 0
c p weight -30 1 0
c p weight 31 3.673940397442059375002259206809000622711899723162043418511757408850826323032379150390625E-16 0
c p weight -31 1 0
c p weight 32 -1 0
c p weight -32 1 0
c p weight 34 -1 0
c p weight -34 1 0
c p weight 36 6.12323399573676603586882014729198302312846062338790031898128063403419218957424163818359375E-17 0
c p weight -36 1 0
c p weight 37 1 0
c p weight -37 1 0
c p weight 38 -1 0
c p weight -38 1 0
c p weight 40 -1 0
c p weight -40 1 0
c p weight 42 1 0
c p weight -42 1 0
c p weight 43 0 0
c p weight -43 1 0
c p weight 44 -1 0
c p weight -44 1 0
c p weight 46 6.12323399573676603586882014729198302312846062338790031898128063403419218957424163818359375E-17 0
c p weight -46 1 0
c p weight 47 1 0
c p weight -47 1 0
c p weight 48 -1 0
c p weight -48 1 0
c p weight 50 -0.577350269189625731058868041145615279674530029296875 0
c p weight -50 1 0
c p weight 51 0.8164965809277260344600790631375275552272796630859375 0
c p weight -51 1 0
c p weight 52 -1 0
c p weight -52 1 0
c p weight 54 6.12323399573676603586882014729198302312846062338790031898128063403419218957424163818359375E-17 0
c p weight -54 1 0
c p weight 55 1 0
c p weight -55 1 0
c p weight 56 -1 0
c p weight -56 1 0
c p weight 58 -1 0
c p weight -58 1 0
c p weight 59 3.673940397442059375002259206809000622711899723162043418511757408850826323032379150390625E-16 0
c p weight -59 1 0
c p weight 60 -1 0
c p weight -60 1 0
c p weight 62 -1 0
c p weight -62 1 0
c p weight 64 6.12323399573676603586882014729198302312846062338790031898128063403419218957424163818359375E-17 0
c p weight -64 1 0
c p weight 65 1 0
c p weight -65 1 0
c p weight 66 -1 0
c p weight -66 1 0
c p weight 68 -1 0
c p weight -68 1 0
c p weight 70 1 0
c p weight -70 1 0
c p weight 71 0 0
c p weight -71 1 0
c p weight 72 -1 0
c p weight -72 1 0
c p weight 74 6.12323399573676603586882014729198302312846062338790031898128063403419218957424163818359375E-17 0
c p weight -74 1 0
c p weight 75 1 0
c p weight -75 1 0
c p weight 76 -1 0
c p weight -76 1 0
c p weight 78 -0.499999999999999833466546306226518936455249786376953125 0
c p weight -78 1 0
c p weight 79 0.86602540378443870761060452423407696187496185302734375 0
c p weight -79 1 0
c p weight 80 -1 0
c p weight -80 1 0
c p weight 82 6.12323399573676603586882014729198302312846062338790031898128063403419218957424163818359375E-17 0
c p weight -82 1 0
c p weight 83 1 0
c p weight -83 1 0
c p weight 84 -1 0
c p weight -84 1 0
c p weight 86 -1 0
c p weight -86 1 0
c p weight 87 3.673940397442059375002259206809000622711899723162043418511757408850826323032379150390625E-16 0
c p weight -87 1 0
c p weight 88 -1 0
c p weight -88 1 0
c p weight 90 -1 0
c p weight -90 1 0
c p weight 92 6.12323399573676603586882014729198302312846062338790031898128063403419218957424163818359375E-17 0
c p weight -92 1 0
c p weight 93 1 0
c p weight -93 1 0
c p weight 94 -1 0
c p weight -94 1 0
c p weight 96 -1 0
c p weight -96 1 0
c p weight 98 1 0
c p weight -98 1 0
c p weight 99 0 0
c p weight -99 1 0
c p weight 100 -1 0
c p weight -100 1 0
c p weight 102 6.12323399573676603586882014729198302312846062338790031898128063403419218957424163818359375E-17 0
c p weight -102 1 0
c p weight 103 1 0
c p weight -103 1 0
c p weight 104 -1 0
c p weight -104 1 0
c p weight 106 -0.447213595499957927703604809721582569181919097900390625 0
c p weight -106 1 0
c p weight 107 0.89442719099991585540720961944316513836383819580078125 0
c p weight -107 1 0
c p weight 108 -1 0
c p weight -108 1 0
c p weight 110 6.12323399573676603586882014729198302312846062338790031898128063403419218957424163818359375E-17 0
c p weight -110 1 0
c p weight 111 1 0
c p weight -111 1 0
c p weight 112 -1 0
c p weight -112 1 0
c p weight 114 -1 0
c p weight -114 1 0
c p weight 115 3.673940397442059375002259206809000622711899723162043418511757408850826323032379150390625E-16 0
c p weight -115 1 0
c p weight 116 -1 0
c p weight -116 1 0
c p weight 118 -1 0
c p weight -118 1 0
c p weight 120 6.12323399573676603586882014729198302312846062338790031898128063403419218957424163818359375E-17 0
c p weight -120 1 0
c p weight 121 1 0
c p weight -121 1 0
c p weight 122 -1 0
c p weight -122 1 0
c p weight 124 -1 0
c p weight -124 1 0
c p weight 126 1 0
c p weight -126 1 0
c p weight 127 0 0
c p weight -127 1 0
c p weight 128 -1 0
c p weight -128 1 0
c p weight 130 6.12323399573676603586882014729198302312846062338790031898128063403419218957424163818359375E-17 0
c p weight -130 1 0
c p weight 131 1 0
c p weight -131 1 0
c p weight 132 -1 0
c p weight -132 1 0
c p weight 134 -0.408248290463862850696585837795282714068889617919921875 0
c p weight -134 1 0
c p weight 135 0.91287092917527690172363463716465048491954803466796875 0
c p weight -135 1 0
c p weight 136 -1 0
c p weight -136 1 0
c p weight 138 6.12323399573676603586882014729198302312846062338790031898128063403419218957424163818359375E-17 0
c p weight -138 1 0
c p weight 139 1 0
c p weight -139 1 0
c p weight 140 -1 0
c p weight -140 1 0
c p weight 142 -1 0
c p weight -142 1 0
c p weight 143 3.673940397442059375002259206809000622711899723162043418511757408850826323032379150390625E-16 0
c p weight -143 1 0
c p weight 144 -1 0
c p weight -144 1 0
c p weight 146 -1 0
c p weight -146 1 0
c p weight 148 6.12323399573676603586882014729198302312846062338790031898128063403419218957424163818359375E-17 0
c p weight -148 1 0
c p weight 149 1 0
c p weight -149 1 0
c p weight 150 -1 0
c p weight -150 1 0
c p weight 152 -1 0
c p weight -152 1 0
c p weight 153 -1 0
c p weight -153 1 0
c p weight 156 -1 0
c p weight -156 1 0
c p weight 158 -1 0
c p weight -158 1 0
c p weight 160 6.12323399573676603586882014729198302312846062338790031898128063403419218957424163818359375E-17 0
c p weight -160 1 0
c p weight 161 1 0
c p weight -161 1 0
c p weight 162 -1 0
c p weight -162 1 0
c p weight 164 -1 0
c p weight -164 1 0
c p weight 166 1 0
c p weight -166 1 0
c p weight 167 0 0
c p weight -167 1 0
c p weight 168 -1 0
c p weight -168 1 0
c p weight 170 6.12323399573676603586882014729198302312846062338790031898128063403419218957424163818359375E-17 0
c p weight -170 1 0
c p weight 171 1 0
c p weight -171 1 0
c p weight 172 -1 0
c p weight -172 1 0
c p weight 174 -0.408248290463863072741190762826590798795223236083984375 0
c p weight -174 1 0
c p weight 175 -0.9128709291752767907013321746489964425563812255859375 0
c p weight -175 1 0
c p weight 176 -1 0
c p weight -176 1 0
c p weight 178 6.12323399573676603586882014729198302312846062338790031898128063403419218957424163818359375E-17 0
c p weight -178 1 0
c p weight 179 1 0
c p weight -179 1 0
c p weight 180 -1 0
c p weight -180 1 0
c p weight 182 -1 0
c p weight -182 1 0
c p weight 183 3.673940397442059375002259206809000622711899723162043418511757408850826323032379150390625E-16 0
c p weight -183 1 0
c p weight 184 -1 0
c p weight -184 1 0
c p weight 187 -1 0
c p weight -187 1 0
c p weight 189 -1 0
c p weight -189 1 0
c p weight 191 6.12323399573676603586882014729198302312846062338790031898128063403419218957424163818359375E-17 0
c p weight -191 1 0
c p weight 192 1 0
c p weight -192 1 0
c p weight 193 -1 0
c p weight -193 1 0
c p weight 195 -1 0
c p weight -195 1 0
c p weight 197 1 0
c p weight -197 1 0
c p weight 198 0 0
c p weight -198 1 0
c p weight 199 -1 0
c p weight -199 1 0
c p weight 201 6.12323399573676603586882014729198302312846062338790031898128063403419218957424163818359375E-17 0
c p weight -201 1 0
c p weight 202 1 0
c p weight -202 1 0
c p weight 203 -1 0
c p weight -203 1 0
c p weight 205 -0.447213595499958149748209734752890653908252716064453125 0
c p weight -205 1 0
c p weight 206 -0.89442719099991574438490715692751109600067138671875 0
c p weight -206 1 0
c p weight 207 -1 0
c p weight -207 1 0
c p weight 209 6.12323399573676603586882014729198302312846062338790031898128063403419218957424163818359375E-17 0
c p weight -209 1 0
c p weight 210 1 0
c p weight -210 1 0
c p weight 211 -1 0
c p weight -211 1 0
c p weight 213 -1 0
c p weight -213 1 0
c p weight 214 3.673940397442059375002259206809000622711899723162043418511757408850826323032379150390625E-16 0
c p weight -214 1 0
c p weight 215 -1 0
c p weight -215 1 0
c p weight 218 -1 0
c p weight -218 1 0
c p weight 220 -1 0
c p weight -220 1 0
c p weight 222 6.12323399573676603586882014729198302312846062338790031898128063403419218957424163818359375E-17 0
c p weight -222 1 0
c p weight 223 1 0
c p weight -223 1 0
c p weight 224 -1 0
c p weight -224 1 0
c p weight 226 -1 0
c p weight -226 1 0
c p weight 228 1 0
c p weight -228 1 0
c p weight 229 0 0
c p weight -229 1 0
c p weight 230 -1 0
c p weight -230 1 0
c p weight 232 6.12323399573676603586882014729198302312846062338790031898128063403419218957424163818359375E-17 0
c p weight -232 1 0
c p weight 233 1 0
c p weight -233 1 0
c p weight 234 -1 0
c p weight -234 1 0
c p weight 236 -0.500000000000000444089209850062616169452667236328125 0
c p weight -236 1 0
c p weight 237 -0.86602540378443837454369713668711483478546142578125 0
c p weight -237 1 0
c p weight 238 -1 0
c p weight -238 1 0
c p weight 240 6.12323399573676603586882014729198302312846062338790031898128063403419218957424163818359375E-17 0
c p weight -240 1 0
c p weight 241 1 0
c p weight -241 1 0
c p weight 242 -1 0
c p weight -242 1 0
c p weight 244 -1 0
c p weight -244 1 0
c p weight 245 3.673940397442059375002259206809000622711899723162043418511757408850826323032379150390625E-16 0
c p weight -245 1 0
c p weight 246 -1 0
c p weight -246 1 0
c p weight 249 -1 0
c p weight -249 1 0
c p weight 251 -1 0
c p weight -251 1 0
c p weight 253 6.12323399573676603586882014729198302312846062338790031898128063403419218957424163818359375E-17 0
c p weight -253 1 0
c p weight 254 1 0
c p weight -254 1 0
c p weight 255 -1 0
c p weight -255 1 0
c p weight 257 -1 0
c p weight -257 1 0
c p weight 259 1 0
c p weight -259 1 0
c p weight 260 0 0
c p weight -260 1 0
c p weight 261 -1 0
c p weight -261 1 0
c p weight 263 6.12323399573676603586882014729198302312846062338790031898128063403419218957424163818359375E-17 0
c p weight -263 1 0
c p weight 264 1 0
c p weight -264 1 0
c p weight 265 -1 0
c p weight -265 1 0
c p weight 267 -0.57735026918962562003656557862996123731136322021484375 0
c p weight -267 1 0
c p weight 268 -0.81649658092772614548238152565318159759044647216796875 0
c p weight -268 1 0
c p weight 269 -1 0
c p weight -269 1 0
c p weight 271 6.12323399573676603586882014729198302312846062338790031898128063403419218957424163818359375E-17 0
c p weight -271 1 0
c p weight 272 1 0
c p weight -272 1 0
c p weight 273 -1 0
c p weight -273 1 0
c p weight 275 -1 0
c p weight -275 1 0
c p weight 276 3.673940397442059375002259206809000622711899723162043418511757408850826323032379150390625E-16 0
c p weight -276 1 0
c p weight 277 -1 0
c p weight -277 1 0
c p weight 280 -1 0
c p weight -280 1 0
c p weight 282 -1 0
c p weight -282 1 0
c p weight 284 6.12323399573676603586882014729198302312846062338790031898128063403419218957424163818359375E-17 0
c p weight -284 1 0
c p weight 285 1 0
c p weight -285 1 0
c p weight 286 -1 0
c p weight -286 1 0
c p weight 288 -1 0
c p weight -288 1 0
c p weight 290 1 0
c p weight -290 1 0
c p weight 291 0 0
c p weight -291 1 0
c p weight 292 -1 0
c p weight -292 1 0
c p weight 294 6.12323399573676603586882014729198302312846062338790031898128063403419218957424163818359375E-17 0
c p weight -294 1 0
c p weight 295 1 0
c p weight -295 1 0
c p weight 296 -1 0
c p weight -296 1 0
c p weight 298 -0.7071067811865476837596133918850682675838470458984375 0
c p weight -298 1 0
c p weight 299 -0.707106781186547461715008466853760182857513427734375 0
c p weight -299 1 0
c p weight 300 -1 0
c p weight -300 1 0
c p weight 302 6.12323399573676603586882014729198302312846062338790031898128063403419218957424163818359375E-17 0
c p weight -302 1 0
c p weight 303 1 0
c p weight -303 1 0
c p weight 304 -1 0
c p weight -304 1 0
c p weight 306 -1 0
c p weight -306 1 0
c p weight 307 3.673940397442059375002259206809000622711899723162043418511757408850826323032379150390625E-16 0
c p weight -307 1 0
c p weight 308 -1 0
c p weight -308 1 0
c p weight 311 -1 0
c p weight -311 1 0
c p weight 314 -1 0
c p weight -314 1 0
c p weight 317 -1 0
c p weight -317 1 0
c p weight 320 -1 0
c p weight -320 1 0
c p weight 323 -1 0
c p weight -323 1 0
-11 0
-9 0
-7 0
-5 0
-3 0
-1 0
13 1 -2 0
-13 1 2 0
-14 1 0
13 -14 -2 0
-13 -14 2 0
13 14 -1 2 0
-13 14 -1 -2 0
-15 1 0
13 -15 2 0
-13 -15 -2 0
13 15 -1 -2 0
-13 15 -1 2 0
-16 1 0
-16 2 0
-16 -13 0
16 13 -1 -2 0
17 -1 13 0
-17 1 13 0
-18 13 0
17 -18 -1 0
-17 -18 1 0
17 18 1 -13 0
-17 18 -1 -13 0
-19 13 0
17 -19 1 0
-17 -19 -1 0
17 19 -1 -13 0
-17 19 1 -13 0
-20 17 0
-20 13 0
-20 -1 0
20 -17 1 -13 0
21 17 -13 0
-21 17 13 0
-22 17 0
21 -22 -13 0
-21 -22 13 0
21 22 -17 13 0
-21 22 -17 -13 0
-23 17 0
21 -23 13 0
-21 -23 -13 0
21 23 -17 -13 0
-21 23 -17 13 0
-24 17 0
-24 13 0
-24 -21 0
24 21 -17 -13 0
25 -17 21 0
-25 17 21 0
-26 21 0
25 -26 -17 0
-25 -26 17 0
25 26 17 -21 0
-25 26 -17 -21 0
-27 21 0
25 -27 17 0
-25 -27 -17 0
25 27 -17 -21 0
-25 27 17 -21 0
-28 25 0
-28 21 0
-28 -17 0
28 -25 17 -21 0
29 25 -21 0
-29 25 21 0
-30 25 0
29 -30 -21 0
-29 -30 21 0
29 30 -25 21 0
-29 30 -25 -21 0
-31 25 0
29 -31 21 0
-29 -31 -21 0
29 31 -25 -21 0
-29 31 -25 21 0
-32 25 0
-32 21 0
-32 -29 0
32 29 -25 -21 0
33 25 -29 0
33 -25 29 0
-33 25 29 0
-33 -25 -29 0
-34 25 0
-34 29 0
34 -25 -29 0
35 -25 33 0
-35 25 33 0
-36 33 0
35 -36 -25 0
-35 -36 25 0
35 36 25 -33 0
-35 36 -25 -33 0
-37 33 0
35 -37 25 0
-35 -37 -25 0
35 37 -25 -33 0
-35 37 25 -33 0
-38 35 0
-38 33 0
-38 -25 0
38 -35 25 -33 0
39 35 -33 0
39 -35 33 0
-39 35 33 0
-39 -35 -33 0
-40 35 0
-40 33 0
40 -35 -33 0
41 3 -4 0
-41 3 4 0
-42 3 0
41 -42 -4 0
-41 -42 4 0
41 42 -3 4 0
-41 42 -3 -4 0
-43 3 0
41 -43 4 0
-41 -43 -4 0
41 43 -3 -4 0
-41 43 -3 4 0
-44 3 0
-44 4 0
-44 -41 0
44 41 -3 -4 0
45 -3 41 0
-45 3 41 0
-46 41 0
45 -46 -3 0
-45 -46 3 0
45 46 3 -41 0
-45 46 -3 -41 0
-47 41 0
45 -47 3 0
-45 -47 -3 0
45 47 -3 -41 0
-45 47 3 -41 0
-48 45 0
-48 41 0
-48 -3 0
48 -45 3 -41 0
49 45 -41 0
-49 45 41 0
-50 45 0
49 -50 -41 0
-49 -50 41 0
49 50 -45 41 0
-49 50 -45 -41 0
-51 45 0
49 -51 41 0
-49 -51 -41 0
49 51 -45 -41 0
-49 51 -45 41 0
-52 45 0
-52 41 0
-52 -49 0
52 49 -45 -41 0
53 -45 49 0
-53 45 49 0
-54 49 0
53 -54 -45 0
-53 -54 45 0
53 54 45 -49 0
-53 54 -45 -49 0
-55 49 0
53 -55 45 0
-53 -55 -45 0
53 55 -45 -49 0
-53 55 45 -49 0
-56 53 0
-56 49 0
-56 -45 0
56 -53 45 -49 0
57 53 -49 0
-57 53 49 0
-58 53 0
57 -58 -49 0
-57 -58 49 0
57 58 -53 49 0
-57 58 -53 -49 0
-59 53 0
57 -59 49 0
-57 -59 -49 0
57 59 -53 -49 0
-57 59 -53 49 0
-60 53 0
-60 49 0
-60 -57 0
60 57 -53 -49 0
61 53 -57 0
61 -53 57 0
-61 53 57 0
-61 -53 -57 0
-62 53 0
-62 57 0
62 -53 -57 0
63 -53 61 0
-63 53 61 0
-64 61 0
63 -64 -53 0
-63 -64 53 0
63 64 53 -61 0
-63 64 -53 -61 0
-65 61 0
63 -65 53 0
-63 -65 -53 0
63 65 -53 -61 0
-63 65 53 -61 0
-66 63 0
-66 61 0
-66 -53 0
66 -63 53 -61 0
67 63 -61 0
67 -63 61 0
-67 63 61 0
-67 -63 -61 0
-68 63 0
-68 61 0
68 -63 -61 0
69 5 -6 0
-69 5 6 0
-70 5 0
69 -70 -6 0
-69 -70 6 0
69 70 -5 6 0
-69 70 -5 -6 0
-71 5 0
69 -71 6 0
-69 -71 -6 0
69 71 -5 -6 0
-69 71 -5 6 0
-72 5 0
-72 6 0
-72 -69 0
72 69 -5 -6 0
73 -5 69 0
-73 5 69 0
-74 69 0
73 -74 -5 0
-73 -74 5 0
73 74 5 -69 0
-73 74 -5 -69 0
-75 69 0
73 -75 5 0
-73 -75 -5 0
73 75 -5 -69 0
-73 75 5 -69 0
-76 73 0
-76 69 0
-76 -5 0
76 -73 5 -69 0
77 73 -69 0
-77 73 69 0
-78 73 0
77 -78 -69 0
-77 -78 69 0
77 78 -73 69 0
-77 78 -73 -69 0
-79 73 0
77 -79 69 0
-77 -79 -69 0
77 79 -73 -69 0
-77 79 -73 69 0
-80 73 0
-80 69 0
-80 -77 0
80 77 -73 -69 0
81 -73 77 0
-81 73 77 0
-82 77 0
81 -82 -73 0
-81 -82 73 0
81 82 73 -77 0
-81 82 -73 -77 0
-83 77 0
81 -83 73 0
-81 -83 -73 0
81 83 -73 -77 0
-81 83 73 -77 0
-84 81 0
-84 77 0
-84 -73 0
84 -81 73 -77 0
85 81 -77 0
-85 81 77 0
-86 81 0
85 -86 -77 0
-85 -86 77 0
85 86 -81 77 0
-85 86 -81 -77 0
-87 81 0
85 -87 77 0
-85 -87 -77 0
85 87 -81 -77 0
-85 87 -81 77 0
-88 81 0
-88 77 0
-88 -85 0
88 85 -81 -77 0
89 81 -85 0
89 -81 85 0
-89 81 85 0
-89 -81 -85 0
-90 81 0
-90 85 0
90 -81 -85 0
91 -81 89 0
-91 81 89 0
-92 89 0
91 -92 -81 0
-91 -92 81 0
91 92 81 -89 0
-91 92 -81 -89 0
-93 89 0
91 -93 81 0
-91 -93 -81 0
91 93 -81 -89 0
-91 93 81 -89 0
-94 91 0
-94 89 0
-94 -81 0
94 -91 81 -89 0
95 91 -89 0
95 -91 89 0
-95 91 89 0
-95 -91 -89 0
-96 91 0
-96 89 0
96 -91 -89 0
97 7 -8 0
-97 7 8 0
-98 7 0
97 -98 -8 0
-97 -98 8 0
97 98 -7 8 0
-97 98 -7 -8 0
-99 7 0
97 -99 8 0
-97 -99 -8 0
97 99 -7 -8 0
-97 99 -7 8 0
-100 7 0
-100 8 0
-100 -97 0
100 97 -7 -8 0
101 -7 97 0
-101 7 97 0
-102 97 0
101 -102 -7 0
-101 -102 7 0
101 102 7 -97 0
-101 102 -7 -97 0
-103 97 0
101 -103 7 0
-101 -103 -7 0
101 103 -7 -97 0
-101 103 7 -97 0
-104 101 0
-104 97 0
-104 -7 0
104 -101 7 -97 0
105 101 -97 0
-105 101 97 0
-106 101 0
105 -106 -97 0
-105 -106 97 0
105 106 -101 97 0
-105 106 -101 -97 0
-107 101 0
105 -107 97 0
-105 -107 -97 0
105 107 -101 -97 0
-105 107 -101 97 0
-108 101 0
-108 97 0
-108 -105 0
108 105 -101 -97 0
109 -101 105 0
-109 101 105 0
-110 105 0
109 -110 -101 0
-109 -110 101 0
109 110 101 -105 0
-109 110 -101 -105 0
-111 105 0
109 -111 101 0
-109 -111 -101 0
109 111 -101 -105 0
-109 111 101 -105 0
-112 109 0
-112 105 0
-112 -101 0
112 -109 101 -105 0
113 109 -105 0
-113 109 105 0
-114 109 0
113 -114 -105 0
-113 -114 105 0
113 114 -109 105 0
-113 114 -109 -105 0
-115 109 0
113 -115 105 0
-113 -115 -105 0
113 115 -109 -105 0
-113 115 -109 105 0
-116 109 0
-116 105 0
-116 -113 0
116 113 -109 -105 0
117 109 -113 0
117 -109 113 0
-117 109 113 0
-117 -109 -113 0
-118 109 0
-118 113 0
118 -109 -113 0
119 -109 117 0
-119 109 117 0
-120 117 0
119 -120 -109 0
-119 -120 109 0
119 120 109 -117 0
-119 120 -109 -117 0
-121 117 0
119 -121 109 0
-119 -121 -109 0
119 121 -109 -117 0
-119 121 109 -117 0
-122 119 0
-122 117 0
-122 -109 0
122 -119 109 -117 0
123 119 -117 0
123 -119 117 0
-123 119 117 0
-123 -119 -117 0
-124 119 0
-124 117 0
124 -119 -117 0
125 9 -10 0
-125 9 10 0
-126 9 0
125 -126 -10 0
-125 -126 10 0
125 126 -9 10 0
-125 126 -9 -10 0
-127 9 0
125 -127 10 0
-125 -127 -10 0
125 127 -9 -10 0
-125 127 -9 10 0
-128 9 0
-128 10 0
-128 -125 0
128 125 -9 -10 0
129 -9 125 0
-129 9 125 0
-130 125 0
129 -130 -9 0
-129 -130 9 0
129 130 9 -125 0
-129 130 -9 -125 0
-131 125 0
129 -131 9 0
-129 -131 -9 0
129 131 -9 -125 0
-129 131 9 -125 0
-132 129 0
-132 125 0
-132 -9 0
132 -129 9 -125 0
133 129 -125 0
-133 129 125 0
-134 129 0
133 -134 -125 0
-133 -134 125 0
133 134 -129 125 0
-133 134 -129 -125 0
-135 129 0
133 -135 125 0
-133 -135 -125 0
133 135 -129 -125 0
-133 135 -129 125 0
-136 129 0
-136 125 0
-136 -133 0
136 133 -129 -125 0
137 -129 133 0
-137 129 133 0
-138 133 0
137 -138 -129 0
-137 -138 129 0
137 138 129 -133 0
-137 138 -129 -133 0
-139 133 0
137 -139 129 0
-137 -139 -129 0
137 139 -129 -133 0
-137 139 129 -133 0
-140 137 0
-140 133 0
-140 -129 0
140 -137 129 -133 0
141 137 -133 0
-141 137 133 0
-142 137 0
141 -142 -133 0
-141 -142 133 0
141 142 -137 133 0
-141 142 -137 -133 0
-143 137 0
141 -143 133 0
-141 -143 -133 0
141 143 -137 -133 0
-141 143 -137 133 0
-144 137 0
-144 133 0
-144 -141 0
144 141 -137 -133 0
145 137 -141 0
145 -137 141 0
-145 137 141 0
-145 -137 -141 0
-146 137 0
-146 141 0
146 -137 -141 0
147 -137 145 0
-147 137 145 0
-148 145 0
147 -148 -137 0
-147 -148 137 0
147 148 137 -145 0
-147 148 -137 -145 0
-149 145 0
147 -149 137 0
-147 -149 -137 0
147 149 -137 -145 0
-147 149 137 -145 0
-150 147 0
-150 145 0
-150 -137 0
150 -147 137 -145 0
151 147 -145 0
151 -147 145 0
-151 147 145 0
-151 -147 -145 0
-152 147 0
-152 145 0
152 -147 -145 0
153 -12 0
-153 12 0
154 11 -147 0
154 -11 147 0
-154 11 147 0
-154 -11 -147 0
155 12 -151 0
155 -12 151 0
-155 12 151 0
-155 -12 -151 0
-156 11 0
-156 151 0
-156 147 -12 0
-156 -147 12 0
156 -11 147 12 -151 0
156 -11 -147 -12 -151 0
157 154 -151 0
157 -154 151 0
-157 154 151 0
-157 -154 -151 0
-158 154 0
-158 151 0
158 -154 -151 0
159 -154 157 0
-159 154 157 0
-160 157 0
159 -160 -154 0
-159 -160 154 0
159 160 154 -157 0
-159 160 -154 -157 0
-161 157 0
159 -161 154 0
-159 -161 -154 0
159 161 -154 -157 0
-159 161 154 -157 0
-162 159 0
-162 157 0
-162 -154 0
162 -159 154 -157 0
163 159 -157 0
163 -159 157 0
-163 159 157 0
-163 -159 -157 0
-164 159 0
-164 157 0
164 -159 -157 0
165 159 -163 0
-165 159 163 0
-166 159 0
165 -166 -163 0
-165 -166 163 0
165 166 -159 163 0
-165 166 -159 -163 0
-167 159 0
165 -167 163 0
-165 -167 -163 0
165 167 -159 -163 0
-165 167 -159 163 0
-168 159 0
-168 163 0
-168 -165 0
168 165 -159 -163 0
169 -159 165 0
-169 159 165 0
-170 165 0
169 -170 -159 0
-169 -170 159 0
169 170 159 -165 0
-169 170 -159 -165 0
-171 165 0
169 -171 159 0
-169 -171 -159 0
169 171 -159 -165 0
-169 171 159 -165 0
-172 169 0
-172 165 0
-172 -159 0
172 -169 159 -165 0
173 169 -165 0
-173 169 165 0
-174 169 0
173 -174 -165 0
-173 -174 165 0
173 174 -169 165 0
-173 174 -169 -165 0
-175 169 0
173 -175 165 0
-173 -175 -165 0
173 175 -169 -165 0
-173 175 -169 165 0
-176 169 0
-176 165 0
-176 -173 0
176 173 -169 -165 0
177 -169 173 0
-177 169 173 0
-178 173 0
177 -178 -169 0
-177 -178 169 0
177 178 169 -173 0
-177 178 -169 -173 0
-179 173 0
177 -179 169 0
-177 -179 -169 0
177 179 -169 -173 0
-177 179 169 -173 0
-180 177 0
-180 173 0
-180 -169 0
180 -177 169 -173 0
181 177 -173 0
-181 177 173 0
-182 177 0
181 -182 -173 0
-181 -182 173 0
181 182 -177 173 0
-181 182 -177 -173 0
-183 177 0
181 -183 173 0
-181 -183 -173 0
181 183 -177 -173 0
-181 183 -177 173 0
-184 177 0
-184 173 0
-184 -181 0
184 181 -177 -173 0
185 177 -119 0
185 -177 119 0
-185 177 119 0
-185 -177 -119 0
186 181 -123 0
186 -181 123 0
-186 181 123 0
-186 -181 -123 0
-187 177 0
-187 123 0
-187 119 -181 0
-187 -119 181 0
187 -177 119 181 -123 0
187 -177 -119 -181 -123 0
188 185 -123 0
188 -185 123 0
-188 185 123 0
-188 -185 -123 0
-189 185 0
-189 123 0
189 -185 -123 0
190 -185 188 0
-190 185 188 0
-191 188 0
190 -191 -185 0
-190 -191 185 0
190 191 185 -188 0
-190 191 -185 -188 0
-192 188 0
190 -192 185 0
-190 -192 -185 0
190 192 -185 -188 0
-190 192 185 -188 0
-193 190 0
-193 188 0
-193 -185 0
193 -190 185 -188 0
194 190 -188 0
194 -190 188 0
-194 190 188 0
-194 -190 -188 0
-195 190 0
-195 188 0
195 -190 -188 0
196 190 -194 0
-196 190 194 0
-197 190 0
196 -197 -194 0
-196 -197 194 0
196 197 -190 194 0
-196 197 -190 -194 0
-198 190 0
196 -198 194 0
-196 -198 -194 0
196 198 -190 -194 0
-196 198 -190 194 0
-199 190 0
-199 194 0
-199 -196 0
199 196 -190 -194 0
200 -190 196 0
-200 190 196 0
-201 196 0
200 -201 -190 0
-200 -201 190 0
200 201 190 -196 0
-200 201 -190 -196 0
-202 196 0
200 -202 190 0
-200 -202 -190 0
200 202 -190 -196 0
-200 202 190 -196 0
-203 200 0
-203 196 0
-203 -190 0
203 -200 190 -196 0
204 200 -196 0
-204 200 196 0
-205 200 0
204 -205 -196 0
-204 -205 196 0
204 205 -200 196 0
-204 205 -200 -196 0
-206 200 0
204 -206 196 0
-204 -206 -196 0
204 206 -200 -196 0
-204 206 -200 196 0
-207 200 0
-207 196 0
-207 -204 0
207 204 -200 -196 0
208 -200 204 0
-208 200 204 0
-209 204 0
208 -209 -200 0
-208 -209 200 0
208 209 200 -204 0
-208 209 -200 -204 0
-210 204 0
208 -210 200 0
-208 -210 -200 0
208 210 -200 -204 0
-208 210 200 -204 0
-211 208 0
-211 204 0
-211 -200 0
211 -208 200 -204 0
212 208 -204 0
-212 208 204 0
-213 208 0
212 -213 -204 0
-212 -213 204 0
212 213 -208 204 0
-212 213 -208 -204 0
-214 208 0
212 -214 204 0
-212 -214 -204 0
212 214 -208 -204 0
-212 214 -208 204 0
-215 208 0
-215 204 0
-215 -212 0
215 212 -208 -204 0
216 208 -91 0
216 -208 91 0
-216 208 91 0
-216 -208 -91 0
217 212 -95 0
217 -212 95 0
-217 212 95 0
-217 -212 -95 0
-218 208 0
-218 95 0
-218 91 -212 0
-218 -91 212 0
218 -208 91 212 -95 0
218 -208 -91 -212 -95 0
219 216 -95 0
219 -216 95 0
-219 216 95 0
-219 -216 -95 0
-220 216 0
-220 95 0
220 -216 -95 0
221 -216 219 0
-221 216 219 0
-222 219 0
221 -222 -216 0
-221 -222 216 0
221 222 216 -219 0
-221 222 -216 -219 0
-223 219 0
221 -223 216 0
-221 -223 -216 0
221 223 -216 -219 0
-221 223 216 -219 0
-224 221 0
-224 219 0
-224 -216 0
224 -221 216 -219 0
225 221 -219 0
225 -221 219 0
-225 221 219 0
-225 -221 -219 0
-226 221 0
-226 219 0
226 -221 -219 0
227 221 -225 0
-227 221 225 0
-228 221 0
227 -228 -225 0
-227 -228 225 0
227 228 -221 225 0
-227 228 -221 -225 0
-229 221 0
227 -229 225 0
-227 -229 -225 0
227 229 -221 -225 0
-227 229 -221 225 0
-230 221 0
-230 225 0
-230 -227 0
230 227 -221 -225 0
231 -221 227 0
-231 221 227 0
-232 227 0
231 -232 -221 0
-231 -232 221 0
231 232 221 -227 0
-231 232 -221 -227 0
-233 227 0
231 -233 221 0
-231 -233 -221 0
231 233 -221 -227 0
-231 233 221 -227 0
-234 231 0
-234 227 0
-234 -221 0
234 -231 221 -227 0
235 231 -227 0
-235 231 227 0
-236 231 0
235 -236 -227 0
-235 -236 227 0
235 236 -231 227 0
-235 236 -231 -227 0
-237 231 0
235 -237 227 0
-235 -237 -227 0
235 237 -231 -227 0
-235 237 -231 227 0
-238 231 0
-238 227 0
-238 -235 0
238 235 -231 -227 0
239 -231 235 0
-239 231 235 0
-240 235 0
239 -240 -231 0
-239 -240 231 0
239 240 231 -235 0
-239 240 -231 -235 0
-241 235 0
239 -241 231 0
-239 -241 -231 0
239 241 -231 -235 0
-239 241 231 -235 0
-242 239 0
-242 235 0
-242 -231 0
242 -239 231 -235 0
243 239 -235 0
-243 239 235 0
-244 239 0
243 -244 -235 0
-243 -244 235 0
243 244 -239 235 0
-243 244 -239 -235 0
-245 239 0
243 -245 235 0
-243 -245 -235 0
243 245 -239 -235 0
-243 245 -239 235 0
-246 239 0
-246 235 0
-246 -243 0
246 243 -239 -235 0
247 239 -63 0
247 -239 63 0
-247 239 63 0
-247 -239 -63 0
248 243 -67 0
248 -243 67 0
-248 243 67 0
-248 -243 -67 0
-249 239 0
-249 67 0
-249 63 -243 0
-249 -63 243 0
249 -239 63 243 -67 0
249 -239 -63 -243 -67 0
250 247 -67 0
250 -247 67 0
-250 247 67 0
-250 -247 -67 0
-251 247 0
-251 67 0
251 -247 -67 0
252 -247 250 0
-252 247 250 0
-253 250 0
252 -253 -247 0
-252 -253 247 0
252 253 247 -250 0
-252 253 -247 -250 0
-254 250 0
252 -254 247 0
-252 -254 -247 0
252 254 -247 -250 0
-252 254 247 -250 0
-255 252 0
-255 250 0
-255 -247 0
255 -252 247 -250 0
256 252 -250 0
256 -252 250 0
-256 252 250 0
-256 -252 -250 0
-257 252 0
-257 250 0
257 -252 -250 0
258 252 -256 0
-258 252 256 0
-259 252 0
258 -259 -256 0
-258 -259 256 0
258 259 -252 256 0
-258 259 -252 -256 0
-260 252 0
258 -260 256 0
-258 -260 -256 0
258 260 -252 -256 0
-258 260 -252 256 0
-261 252 0
-261 256 0
-261 -258 0
261 258 -252 -256 0
262 -252 258 0
-262 252 258 0
-263 258 0
262 -263 -252 0
-262 -263 252 0
262 263 252 -258 0
-262 263 -252 -258 0
-264 258 0
262 -264 252 0
-262 -264 -252 0
262 264 -252 -258 0
-262 264 252 -258 0
-265 262 0
-265 258 0
-265 -252 0
265 -262 252 -258 0
266 262 -258 0
-266 262 258 0
-267 262 0
266 -267 -258 0
-266 -267 258 0
266 267 -262 258 0
-266 267 -262 -258 0
-268 262 0
266 -268 258 0
-266 -268 -258 0
266 268 -262 -258 0
-266 268 -262 258 0
-269 262 0
-269 258 0
-269 -266 0
269 266 -262 -258 0
270 -262 266 0
-270 262 266 0
-271 266 0
270 -271 -262 0
-270 -271 262 0
270 271 262 -266 0
-270 271 -262 -266 0
-272 266 0
270 -272 262 0
-270 -272 -262 0
270 272 -262 -266 0
-270 272 262 -266 0
-273 270 0
-273 266 0
-273 -262 0
273 -270 262 -266 0
274 270 -266 0
-274 270 266 0
-275 270 0
274 -275 -266 0
-274 -275 266 0
274 275 -270 266 0
-274 275 -270 -266 0
-276 270 0
274 -276 266 0
-274 -276 -266 0
274 276 -270 -266 0
-274 276 -270 266 0
-277 270 0
-277 266 0
-277 -274 0
277 274 -270 -266 0
278 270 -35 0
278 -270 35 0
-278 270 35 0
-278 -270 -35 0
279 274 -39 0
279 -274 39 0
-279 274 39 0
-279 -274 -39 0
-280 270 0
-280 39 0
-280 35 -274 0
-280 -35 274 0
280 -270 35 274 -39 0
280 -270 -35 -274 -39 0
281 278 -39 0
281 -278 39 0
-281 278 39 0
-281 -278 -39 0
-282 278 0
-282 39 0
282 -278 -39 0
283 -278 281 0
-283 278 281 0
-284 281 0
283 -284 -278 0
-283 -284 278 0
283 284 278 -281 0
-283 284 -278 -281 0
-285 281 0
283 -285 278 0
-283 -285 -278 0
283 285 -278 -281 0
-283 285 278 -281 0
-286 283 0
-286 281 0
-286 -278 0
286 -283 278 -281 0
287 283 -281 0
287 -283 281 0
-287 283 281 0
-287 -283 -281 0
-288 283 0
-288 281 0
288 -283 -281 0
289 283 -287 0
-289 283 287 0
-290 283 0
289 -290 -287 0
-289 -290 287 0
289 290 -283 287 0
-289 290 -283 -287 0
-291 283 0
289 -291 287 0
-289 -291 -287 0
289 291 -283 -287 0
-289 291 -283 287 0
-292 283 0
-292 287 0
-292 -289 0
292 289 -283 -287 0
293 -283 289 0
-293 283 289 0
-294 289 0
293 -294 -283 0
-293 -294 283 0
293 294 283 -289 0
-293 294 -283 -289 0
-295 289 0
293 -295 283 0
-293 -295 -283 0
293 295 -283 -289 0
-293 295 283 -289 0
-296 293 0
-296 289 0
-296 -283 0
296 -293 283 -289 0
297 293 -289 0
-297 293 289 0
-298 293 0
297 -298 -289 0
-297 -298 289 0
297 298 -293 289 0
-297 298 -293 -289 0
-299 293 0
297 -299 289 0
-297 -299 -289 0
297 299 -293 -289 0
-297 299 -293 289 0
-300 293 0
-300 289 0
-300 -297 0
300 297 -293 -289 0
301 -293 297 0
-301 293 297 0
-302 297 0
301 -302 -293 0
-301 -302 293 0
301 302 293 -297 0
-301 302 -293 -297 0
-303 297 0
301 -303 293 0
-301 -303 -293 0
301 303 -293 -297 0
-301 303 293 -297 0
-304 301 0
-304 297 0
-304 -293 0
304 -301 293 -297 0
305 301 -297 0
-305 301 297 0
-306 301 0
305 -306 -297 0
-305 -306 297 0
305 306 -301 297 0
-305 306 -301 -297 0
-307 301 0
305 -307 297 0
-305 -307 -297 0
305 307 -301 -297 0
-305 307 -301 297 0
-308 301 0
-308 297 0
-308 -305 0
308 305 -301 -297 0
309 177 -11 0
309 -177 11 0
-309 177 11 0
-309 -177 -11 0
310 186 -155 0
310 -186 155 0
-310 186 155 0
-310 -186 -155 0
-311 177 0
-311 155 0
-311 11 -186 0
-311 -11 186 0
311 -177 11 186 -155 0
311 -177 -11 -186 -155 0
312 208 -177 0
312 -208 177 0
-312 208 177 0
-312 -208 -177 0
313 217 -310 0
313 -217 310 0
-313 217 310 0
-313 -217 -310 0
-314 208 0
-314 310 0
-314 177 -217 0
-314 -177 217 0
314 -208 177 217 -310 0
314 -208 -177 -217 -310 0
315 239 -208 0
315 -239 208 0
-315 239 208 0
-315 -239 -208 0
316 248 -313 0
316 -248 313 0
-316 248 313 0
-316 -248 -313 0
-317 239 0
-317 313 0
-317 208 -248 0
-317 -208 248 0
317 -239 208 248 -313 0
317 -239 -208 -248 -313 0
318 270 -239 0
318 -270 239 0
-318 270 239 0
-318 -270 -239 0
319 279 -316 0
319 -279 316 0
-319 279 316 0
-319 -279 -316 0
-320 270 0
-320 316 0
-320 239 -279 0
-320 -239 279 0
320 -270 239 279 -316 0
320 -270 -239 -279 -316 0
321 301 -270 0
321 -301 270 0
-321 301 270 0
-321 -301 -270 0
322 305 -319 0
322 -305 319 0
-322 305 319 0
-322 -305 -319 0
-323 301 0
-323 319 0
-323 270 -305 0
-323 -270 305 0
323 -301 270 305 -319 0
323 -301 -270 -305 -319 0
-301 0
-321 0
-319 0
-318 0
-316 0
-315 0
-313 0
-312 0
-310 0
-309 0
-155 0
